units real
boundary p p p 
atom_style full
pair_style lj/cut 12.0
pair_modify mix arithmetic
bond_style harmonic
angle_style harmonic
dihedral_style opls