units real
atom_style full
pair_style lj/cut/coul/long 14.0
pair_modify mix arithmetic
bond_style harmonic
angle_style harmonic
dihedral_style opls
boundary p p p